25
1 0 1
2 0 2
3 1 2
3 2 4
4 0 2
5 0 5
5 3 4
5 4 1
6 4 2
6 5 1
7 0 1
7 2 5
7 6 1
8 4 2
8 5 5
8 6 3
8 7 4
9 0 1
9 1 2
9 2 3
9 3 1
9 5 1
9 6 3
10 3 5
10 4 4
10 9 1
11 0 1
11 2 3
11 3 5
11 4 4
11 5 1
11 7 3
11 9 5
11 10 2
12 0 5
12 3 4
12 4 4
12 5 3
12 6 1
12 7 3
12 8 4
12 11 4
13 0 3
13 2 1
13 3 4
13 4 2
13 7 3
14 0 4
14 1 5
14 2 4
14 4 3
14 6 3
14 7 4
14 8 2
14 9 3
14 10 1
14 11 4
14 12 5
15 5 5
15 8 5
15 9 4
15 11 2
15 12 2
15 13 1
15 14 5
16 2 3
16 3 2
16 6 5
16 9 4
16 12 3
17 3 3
17 7 3
17 8 3
17 9 2
17 10 5
17 11 1
17 12 4
17 14 2
17 15 2
18 1 5
18 4 2
18 8 5
18 9 3
18 10 3
18 17 2
19 2 3
19 7 5
19 8 3
19 9 4
19 10 2
19 11 1
19 13 2
19 14 4
19 15 2
19 18 4
20 1 3
20 3 5
20 4 4
20 5 4
20 8 1
20 12 5
20 13 2
20 16 4
20 17 2
20 18 2
20 19 1
21 0 2
21 2 3
21 8 2
21 9 5
21 11 1
21 13 1
21 15 2
22 0 3
22 1 1
22 4 1
22 14 4
22 18 3
22 20 5
22 21 5
23 0 4
23 1 3
23 3 2
23 4 3
23 5 5
23 9 2
23 10 1
23 12 1
23 14 4
23 15 5
23 16 1
23 17 3
23 19 3
23 21 1
24 0 5
24 1 3
24 2 3
24 3 5
24 9 4
24 11 2
24 12 3
24 14 1
24 18 4
24 19 3
24 22 4
